29
2 10 19 
3 26 50 22 
2 4 25 
2 16 32 
2 55 34 
3 24 46 39 
2 58 49 
2 16 60 
3 1 15 21 
1 28 
2 13 40 
3 43 33 56 
1 48 
3 31 51 54 
1 3 
1 18 
2 7 17 
3 36 57 27 
2 59 35 
3 6 8 14 
3 2 44 47 
1 42 
2 30 37 
1 53 
3 5 41 29 
3 12 52 32 
2 38 11 
1 20 
1 23 
